begin Projections
random
end Projections
write_hr = true
begin atoms_cart
Ang
fe_1          0.000000       0.000000       0.000000
end atoms_cart
num_wann =    9
fermi_energy = 0.0
begin unit_cell_cart
Ang
   -1.43499833      -1.43499833      -1.43499833
    1.43499833       1.43499833      -1.43499833
    1.43499833      -1.43499833       1.43499833
end unit_cell_cart
mp_grid =   22   22   22
begin kpoints
    0.00000000       0.00000000       0.00000000
    0.04545455       0.00000000       0.00000000
    0.09090909       0.00000000       0.00000000
    0.13636364       0.00000000       0.00000000
    0.18181818       0.00000000       0.00000000
    0.22727273       0.00000000       0.00000000
    0.27272727       0.00000000       0.00000000
    0.31818182       0.00000000       0.00000000
    0.36363636       0.00000000       0.00000000
    0.40909091       0.00000000       0.00000000
    0.45454545       0.00000000       0.00000000
    0.50000000       0.00000000       0.00000000
    0.04545455       0.00000000       0.04545455
    0.09090909       0.04545455      -0.00000000
    0.13636364       0.04545455       0.00000000
    0.18181818       0.04545455       0.00000000
    0.22727273       0.04545455       0.00000000
    0.27272727       0.04545455       0.00000000
    0.31818182       0.04545455       0.00000000
    0.36363636       0.04545455       0.00000000
    0.40909091       0.04545455       0.00000000
    0.45454545       0.04545455      -0.00000000
    0.09090909       0.00000000       0.09090909
    0.13636364       0.09090909       0.00000000
    0.18181818       0.09090909      -0.00000000
    0.22727273       0.09090909       0.00000000
    0.27272727       0.09090909       0.00000000
    0.31818182       0.09090909       0.00000000
    0.36363636       0.09090909       0.00000000
    0.40909091       0.09090909       0.00000000
    0.45454545       0.09090909       0.00000000
    0.13636364       0.00000000       0.13636364
    0.18181818       0.13636364       0.00000000
    0.22727273       0.13636364       0.00000000
    0.00000000       0.40909091      -0.13636364
    0.31818182       0.13636364       0.00000000
    0.36363636       0.13636364      -0.00000000
    0.40909091       0.13636364      -0.00000000
    0.18181818       0.00000000       0.18181818
    0.18181818       0.22727273      -0.40909091
    0.27272727       0.18181818       0.00000000
    0.31818182       0.18181818      -0.00000000
    0.36363636       0.18181818      -0.00000000
    0.40909091       0.18181818      -0.00000000
    0.22727273       0.22727273       0.00000000
    0.22727273      -0.00000000       0.27272727
    0.31818182       0.22727273       0.00000000
    0.36363636       0.22727273       0.00000000
    0.27272727       0.00000000       0.27272727
    0.27272727       0.31818182      -0.59090909
    0.36363636       0.27272727       0.00000000
    0.31818182       0.31818182       0.00000000
    0.04545455       0.04545455       0.04545455
    0.09090909       0.04545455       0.04545455
    0.13636364       0.04545455       0.04545455
    0.04545455       0.04545455       0.18181818
    0.22727273       0.04545455       0.04545455
    0.27272727       0.04545455       0.04545455
    0.31818182       0.04545455       0.04545455
    0.36363636       0.04545455       0.04545455
    0.40909091       0.04545455       0.04545455
    0.45454545       0.04545455       0.04545455
   -0.04545455       0.04545455       0.04545455
    0.09090909       0.09090909       0.04545455
    0.09090909       0.04545455       0.13636364
    0.18181818       0.09090909       0.04545455
    0.22727273       0.09090909       0.04545455
    0.09090909       0.27272727      -0.40909091
    0.31818182       0.09090909       0.04545455
    0.36363636       0.09090909       0.04545455
    0.40909091       0.09090909       0.04545455
   -0.09090909       0.09090909       0.04545455
    0.13636364       0.13636364       0.04545455
    0.18181818       0.13636364       0.04545455
   -0.04545455       0.40909091      -0.13636364
    0.13636364       0.04545455       0.27272727
    0.31818182       0.13636364       0.04545455
    0.13636364       0.04545455       0.36363636
    0.40909091       0.13636364       0.04545455
   -0.13636364       0.13636364       0.04545455
   -0.09090909       0.13636364       0.04545455
    0.18181818       0.18181818      -0.40909091
    0.18181818       0.04545455       0.22727273
    0.27272727       0.18181818       0.04545455
    0.18181818       0.04545455       0.31818182
    0.18181818       0.36363636      -0.59090909
   -0.18181818       0.18181818       0.04545455
   -0.13636364       0.18181818       0.04545455
    0.22727273       0.22727273       0.04545455
    0.27272727       0.22727273       0.04545455
    0.31818182       0.22727273       0.04545455
    0.36363636       0.22727273       0.04545455
   -0.22727273       0.22727273       0.04545455
   -0.18181818       0.22727273       0.04545455
   -0.13636364       0.22727273       0.04545455
    0.27272727       0.27272727      -0.59090909
    0.27272727       0.04545455       0.31818182
   -0.27272727       0.27272727       0.04545455
   -0.22727273       0.27272727       0.04545455
   -0.18181818       0.27272727       0.04545455
    0.31818182       0.31818182       0.04545455
   -0.31818182       0.31818182       0.04545455
   -0.27272727       0.31818182       0.04545455
   -0.22727273       0.31818182       0.04545455
   -0.18181818       0.31818182       0.04545455
   -0.36363636       0.36363636       0.04545455
   -0.31818182       0.36363636       0.04545455
   -0.27272727       0.36363636       0.04545455
   -0.22727273       0.36363636       0.04545455
   -0.40909091       0.40909091       0.04545455
   -0.04545455       0.09090909      -0.40909091
   -0.31818182       0.40909091       0.04545455
   -0.27272727       0.40909091       0.04545455
   -0.22727273       0.40909091       0.04545455
   -0.45454545       0.45454545       0.04545455
    0.45454545      -0.40909091      -0.09090909
   -0.36363636       0.45454545       0.04545455
   -0.31818182       0.45454545       0.04545455
   -0.27272727       0.45454545       0.04545455
   -0.50000000       0.50000000       0.04545455
   -0.45454545       0.50000000       0.04545455
   -0.40909091       0.50000000       0.04545455
   -0.36363636       0.50000000       0.04545455
   -0.31818182       0.50000000       0.04545455
    0.27272727      -0.04545455       0.27272727
   -0.45454545       0.54545455       0.04545455
   -0.40909091       0.54545455       0.04545455
   -0.36363636       0.54545455       0.04545455
   -0.31818182       0.54545455       0.04545455
   -0.40909091       0.59090909       0.04545455
   -0.36363636       0.59090909       0.04545455
   -0.04545455       0.31818182      -0.59090909
   -0.36363636       0.63636364       0.04545455
    0.09090909       0.09090909       0.09090909
    0.13636364       0.09090909       0.09090909
    0.18181818       0.09090909       0.09090909
   -0.09090909       0.40909091      -0.09090909
    0.27272727       0.09090909       0.09090909
    0.09090909       0.09090909       0.31818182
    0.09090909       0.09090909       0.36363636
    0.40909091       0.09090909       0.09090909
   -0.09090909       0.09090909       0.09090909
    0.13636364       0.13636364       0.09090909
    0.09090909       0.13636364      -0.40909091
    0.22727273       0.13636364       0.09090909
    0.27272727       0.13636364       0.09090909
    0.31818182       0.13636364       0.09090909
   -0.09090909       0.59090909      -0.13636364
   -0.13636364       0.13636364       0.09090909
    0.18181818       0.18181818       0.09090909
    0.22727273       0.18181818       0.09090909
    0.18181818       0.09090909       0.27272727
    0.59090909      -0.09090909      -0.31818182
    0.36363636       0.18181818       0.09090909
   -0.18181818       0.18181818       0.09090909
   -0.13636364       0.18181818       0.09090909
    0.22727273       0.22727273       0.09090909
    0.59090909      -0.09090909      -0.27272727
    0.22727273       0.09090909       0.31818182
   -0.22727273       0.22727273       0.09090909
   -0.18181818       0.22727273       0.09090909
    0.27272727       0.27272727       0.09090909
   -0.09090909      -0.31818182      -0.27272727
   -0.27272727       0.27272727       0.09090909
   -0.22727273       0.27272727       0.09090909
   -0.18181818       0.27272727       0.09090909
   -0.31818182       0.31818182       0.09090909
   -0.27272727       0.31818182       0.09090909
   -0.22727273       0.31818182       0.09090909
   -0.36363636       0.36363636       0.09090909
   -0.31818182       0.36363636       0.09090909
   -0.27272727       0.36363636       0.09090909
   -0.22727273       0.36363636       0.09090909
   -0.40909091       0.40909091       0.09090909
   -0.09090909       0.13636364      -0.40909091
   -0.31818182       0.40909091       0.09090909
   -0.27272727       0.40909091       0.09090909
   -0.45454545       0.45454545       0.09090909
   -0.40909091       0.45454545       0.09090909
   -0.36363636       0.45454545       0.09090909
   -0.31818182       0.45454545       0.09090909
   -0.27272727       0.45454545       0.09090909
   -0.50000000       0.50000000       0.09090909
    0.50000000      -0.45454545      -0.13636364
    0.18181818      -0.09090909       0.40909091
    0.50000000      -0.36363636      -0.22727273
    0.27272727      -0.09090909       0.31818182
   -0.45454545       0.54545455       0.09090909
    0.54545455      -0.40909091      -0.22727273
   -0.36363636       0.54545455       0.09090909
   -0.31818182       0.54545455       0.09090909
   -0.40909091       0.59090909       0.09090909
   -0.36363636       0.59090909       0.09090909
   -0.36363636       0.63636364       0.09090909
   -0.13636364       0.40909091      -0.13636364
    0.18181818       0.13636364       0.13636364
    0.22727273       0.13636364       0.13636364
    0.27272727       0.13636364       0.13636364
   -0.13636364       0.59090909      -0.13636364
    0.36363636       0.13636364       0.13636364
   -0.13636364       0.13636364       0.13636364
    0.18181818       0.18181818       0.13636364
    0.22727273       0.18181818       0.13636364
   -0.13636364       0.59090909      -0.18181818
    0.31818182       0.18181818       0.13636364
   -0.18181818       0.18181818       0.13636364
   -0.13636364       0.59090909      -0.22727273
    0.27272727       0.22727273       0.13636364
    0.31818182       0.22727273       0.13636364
   -0.22727273       0.22727273       0.13636364
   -0.18181818       0.22727273       0.13636364
    0.27272727       0.13636364       0.27272727
   -0.27272727       0.27272727       0.13636364
   -0.22727273       0.27272727       0.13636364
   -0.31818182       0.31818182       0.13636364
   -0.27272727       0.31818182       0.13636364
   -0.22727273       0.31818182       0.13636364
   -0.36363636       0.36363636       0.13636364
   -0.31818182       0.36363636       0.13636364
   -0.27272727       0.36363636       0.13636364
   -0.40909091       0.40909091       0.13636364
   -0.36363636       0.40909091       0.13636364
   -0.31818182       0.40909091       0.13636364
   -0.27272727       0.40909091       0.13636364
   -0.45454545       0.45454545       0.13636364
   -0.40909091       0.45454545       0.13636364
   -0.36363636       0.45454545       0.13636364
   -0.31818182       0.45454545       0.13636364
   -0.50000000       0.50000000       0.13636364
    0.50000000      -0.45454545      -0.18181818
    0.22727273      -0.13636364       0.40909091
    0.50000000      -0.36363636      -0.27272727
    0.50000000      -0.31818182      -0.31818182
   -0.45454545       0.54545455       0.13636364
    0.54545455      -0.40909091      -0.27272727
   -0.36363636       0.54545455       0.13636364
   -0.40909091       0.59090909       0.13636364
   -0.36363636       0.59090909       0.13636364
    0.18181818       0.18181818       0.18181818
    0.22727273       0.18181818       0.18181818
    0.27272727       0.18181818       0.18181818
    0.31818182       0.18181818       0.18181818
   -0.18181818       0.18181818       0.18181818
    0.22727273       0.22727273       0.18181818
    0.27272727       0.22727273       0.18181818
   -0.22727273       0.22727273       0.18181818
    0.27272727       0.27272727       0.18181818
   -0.27272727       0.27272727       0.18181818
   -0.22727273       0.27272727       0.18181818
   -0.31818182       0.31818182       0.18181818
   -0.27272727       0.31818182       0.18181818
   -0.36363636       0.36363636       0.18181818
   -0.31818182       0.36363636       0.18181818
   -0.27272727       0.36363636       0.18181818
   -0.40909091       0.40909091       0.18181818
   -0.36363636       0.40909091       0.18181818
   -0.31818182       0.40909091       0.18181818
   -0.45454545       0.45454545       0.18181818
    0.45454545      -0.40909091      -0.22727273
   -0.36363636       0.45454545       0.18181818
   -0.31818182       0.45454545       0.18181818
   -0.50000000       0.50000000       0.18181818
   -0.45454545       0.50000000       0.18181818
    0.50000000      -0.40909091      -0.27272727
   -0.36363636       0.50000000       0.18181818
   -0.45454545       0.54545455       0.18181818
   -0.40909091       0.54545455       0.18181818
   -0.36363636       0.54545455       0.18181818
   -0.40909091       0.59090909       0.18181818
    0.22727273       0.22727273       0.22727273
    0.27272727       0.22727273       0.22727273
   -0.22727273       0.22727273       0.22727273
   -0.27272727       0.27272727       0.22727273
   -0.31818182       0.31818182       0.22727273
   -0.27272727       0.31818182       0.22727273
   -0.36363636       0.36363636       0.22727273
   -0.31818182       0.36363636       0.22727273
   -0.40909091       0.40909091       0.22727273
   -0.36363636       0.40909091       0.22727273
   -0.31818182       0.40909091       0.22727273
   -0.45454545       0.45454545       0.22727273
    0.45454545      -0.40909091      -0.27272727
   -0.36363636       0.45454545       0.22727273
   -0.50000000       0.50000000       0.22727273
   -0.45454545       0.50000000       0.22727273
   -0.40909091       0.50000000       0.22727273
   -0.36363636       0.50000000       0.22727273
   -0.45454545       0.54545455       0.22727273
   -0.40909091       0.54545455       0.22727273
   -0.40909091       0.59090909       0.22727273
   -0.27272727       0.27272727       0.27272727
   -0.31818182       0.31818182       0.27272727
   -0.36363636       0.36363636       0.27272727
   -0.31818182       0.36363636       0.27272727
   -0.40909091       0.40909091       0.27272727
   -0.36363636       0.40909091       0.27272727
   -0.45454545       0.45454545       0.27272727
   -0.40909091       0.45454545       0.27272727
   -0.36363636       0.45454545       0.27272727
   -0.50000000       0.50000000       0.27272727
    0.50000000      -0.45454545      -0.31818182
    0.50000000      -0.40909091      -0.36363636
   -0.45454545       0.54545455       0.27272727
   -0.40909091       0.54545455       0.27272727
   -0.31818182       0.31818182       0.31818182
   -0.36363636       0.36363636       0.31818182
   -0.40909091       0.40909091       0.31818182
   -0.36363636       0.40909091       0.31818182
   -0.45454545       0.45454545       0.31818182
   -0.40909091       0.45454545       0.31818182
   -0.50000000       0.50000000       0.31818182
    0.50000000      -0.45454545      -0.36363636
    0.50000000      -0.40909091      -0.40909091
   -0.45454545       0.54545455       0.31818182
   -0.36363636       0.36363636       0.36363636
   -0.40909091       0.40909091       0.36363636
   -0.45454545       0.45454545       0.36363636
   -0.40909091       0.45454545       0.36363636
   -0.50000000       0.50000000       0.36363636
   -0.45454545       0.50000000       0.36363636
   -0.45454545       0.54545455       0.36363636
   -0.40909091       0.40909091       0.40909091
   -0.45454545       0.45454545       0.40909091
   -0.50000000       0.50000000       0.40909091
   -0.45454545       0.50000000       0.40909091
   -0.45454545       0.45454545       0.45454545
   -0.50000000       0.50000000       0.45454545
   -0.50000000       0.50000000       0.50000000
   -0.04545455       0.00000000       0.00000000
    0.00000000       0.04545455       0.00000000
    0.00000000      -0.04545455       0.00000000
    0.00000000       0.04545455      -0.04545455
    0.00000000      -0.04545455       0.04545455
    0.04545455       0.00000000      -0.04545455
   -0.04545455       0.00000000       0.04545455
    0.00000000       0.00000000       0.04545455
    0.00000000       0.00000000      -0.04545455
   -0.04545455       0.04545455       0.00000000
    0.04545455      -0.04545455       0.00000000
   -0.09090909       0.00000000       0.00000000
    0.00000000       0.09090909       0.00000000
    0.00000000      -0.09090909       0.00000000
    0.00000000       0.09090909      -0.09090909
    0.00000000      -0.09090909       0.09090909
    0.09090909       0.00000000      -0.09090909
   -0.09090909       0.00000000       0.09090909
    0.00000000       0.00000000       0.09090909
    0.00000000       0.00000000      -0.09090909
   -0.09090909       0.09090909       0.00000000
    0.09090909      -0.09090909       0.00000000
   -0.13636364       0.00000000       0.00000000
    0.00000000       0.13636364       0.00000000
    0.00000000      -0.13636364       0.00000000
    0.00000000       0.13636364      -0.13636364
    0.00000000      -0.13636364       0.13636364
    0.13636364       0.00000000      -0.13636364
   -0.13636364       0.00000000       0.13636364
    0.00000000      -0.00000000       0.13636364
   -0.00000000       0.00000000      -0.13636364
   -0.13636364       0.13636364       0.00000000
    0.13636364      -0.13636364      -0.00000000
   -0.18181818       0.00000000       0.00000000
    0.00000000       0.18181818       0.00000000
    0.00000000      -0.18181818       0.00000000
    0.00000000       0.18181818      -0.18181818
    0.00000000      -0.18181818       0.18181818
    0.18181818       0.00000000      -0.18181818
   -0.18181818       0.00000000       0.18181818
    0.00000000       0.00000000       0.18181818
    0.00000000       0.00000000      -0.18181818
   -0.18181818       0.18181818       0.00000000
    0.18181818      -0.18181818       0.00000000
   -0.22727273       0.00000000       0.00000000
    0.00000000       0.22727273       0.00000000
    0.00000000      -0.22727273       0.00000000
    0.00000000       0.22727273      -0.22727273
    0.00000000      -0.22727273       0.22727273
    0.22727273       0.00000000      -0.22727273
   -0.22727273       0.00000000       0.22727273
    0.00000000      -0.00000000       0.22727273
   -0.00000000       0.00000000      -0.22727273
   -0.22727273       0.22727273       0.00000000
    0.22727273      -0.22727273      -0.00000000
   -0.27272727       0.00000000       0.00000000
    0.00000000       0.27272727       0.00000000
    0.00000000      -0.27272727       0.00000000
    0.00000000       0.27272727      -0.27272727
    0.00000000      -0.27272727       0.27272727
    0.27272727       0.00000000      -0.27272727
   -0.27272727       0.00000000       0.27272727
    0.00000000      -0.00000000       0.27272727
   -0.00000000       0.00000000      -0.27272727
   -0.27272727       0.27272727       0.00000000
    0.27272727      -0.27272727      -0.00000000
   -0.31818182       0.00000000       0.00000000
    0.00000000       0.31818182       0.00000000
    0.00000000      -0.31818182       0.00000000
    0.00000000       0.31818182      -0.31818182
    0.00000000      -0.31818182       0.31818182
    0.31818182       0.00000000      -0.31818182
   -0.31818182       0.00000000       0.31818182
    0.00000000      -0.00000000       0.31818182
   -0.00000000       0.00000000      -0.31818182
   -0.31818182       0.31818182       0.00000000
    0.31818182      -0.31818182      -0.00000000
   -0.36363636       0.00000000       0.00000000
    0.00000000       0.36363636       0.00000000
    0.00000000      -0.36363636       0.00000000
    0.00000000       0.36363636      -0.36363636
    0.00000000      -0.36363636       0.36363636
    0.36363636       0.00000000      -0.36363636
   -0.36363636       0.00000000       0.36363636
    0.00000000       0.00000000       0.36363636
    0.00000000       0.00000000      -0.36363636
   -0.36363636       0.36363636       0.00000000
    0.36363636      -0.36363636       0.00000000
   -0.40909091       0.00000000       0.00000000
    0.00000000       0.40909091       0.00000000
    0.00000000      -0.40909091       0.00000000
    0.00000000       0.40909091      -0.40909091
    0.00000000      -0.40909091       0.40909091
    0.40909091       0.00000000      -0.40909091
   -0.40909091       0.00000000       0.40909091
    0.00000000      -0.00000000       0.40909091
   -0.00000000       0.00000000      -0.40909091
   -0.40909091       0.40909091       0.00000000
    0.40909091      -0.40909091      -0.00000000
   -0.45454545       0.00000000       0.00000000
    0.00000000       0.45454545       0.00000000
    0.00000000      -0.45454545       0.00000000
    0.00000000       0.45454545      -0.45454545
    0.00000000      -0.45454545       0.45454545
    0.45454545       0.00000000      -0.45454545
   -0.45454545       0.00000000       0.45454545
    0.00000000      -0.00000000       0.45454545
   -0.00000000       0.00000000      -0.45454545
   -0.45454545       0.45454545       0.00000000
    0.45454545      -0.45454545      -0.00000000
    0.00000000       0.50000000       0.00000000
    0.00000000       0.50000000      -0.50000000
    0.50000000       0.00000000      -0.50000000
    0.00000000      -0.00000000       0.50000000
   -0.50000000       0.50000000       0.00000000
   -0.04545455       0.00000000      -0.04545455
   -0.04545455       0.09090909       0.00000000
    0.04545455      -0.09090909       0.00000000
    0.00000000       0.04545455      -0.09090909
    0.00000000      -0.04545455       0.09090909
    0.09090909      -0.04545455      -0.04545455
   -0.09090909       0.04545455       0.04545455
   -0.09090909       0.04545455       0.00000000
    0.09090909      -0.04545455      -0.00000000
   -0.00000000      -0.04545455      -0.04545455
    0.00000000       0.04545455       0.04545455
    0.04545455      -0.09090909       0.04545455
   -0.04545455       0.09090909      -0.04545455
   -0.04545455      -0.00000000       0.09090909
    0.04545455       0.00000000      -0.09090909
    0.04545455       0.04545455       0.00000000
   -0.04545455      -0.04545455      -0.00000000
   -0.00000000       0.09090909      -0.04545455
    0.00000000      -0.09090909       0.04545455
    0.04545455       0.04545455      -0.09090909
   -0.04545455      -0.04545455       0.09090909
    0.09090909      -0.00000000      -0.04545455
   -0.09090909       0.00000000       0.04545455
   -0.09090909      -0.04545455       0.00000000
    0.00000000       0.13636364      -0.04545455
   -0.00000000      -0.13636364       0.04545455
    0.04545455       0.09090909      -0.13636364
   -0.04545455      -0.09090909       0.13636364
    0.13636364       0.00000000      -0.09090909
   -0.13636364      -0.00000000       0.09090909
   -0.13636364      -0.00000000       0.04545455
    0.13636364       0.00000000      -0.04545455
   -0.04545455      -0.09090909       0.00000000
    0.04545455       0.09090909      -0.00000000
   -0.00000000      -0.13636364       0.09090909
    0.00000000       0.13636364      -0.09090909
   -0.09090909      -0.04545455       0.13636364
    0.09090909       0.04545455      -0.13636364
    0.04545455      -0.00000000       0.09090909
   -0.04545455       0.00000000      -0.09090909
   -0.09090909       0.13636364       0.00000000
    0.09090909      -0.13636364      -0.00000000
   -0.00000000       0.04545455      -0.13636364
    0.00000000      -0.04545455       0.13636364
    0.13636364      -0.09090909      -0.04545455
   -0.13636364       0.09090909       0.04545455
   -0.13636364       0.09090909       0.00000000
    0.13636364      -0.09090909      -0.00000000
   -0.00000000      -0.04545455      -0.09090909
    0.00000000       0.04545455       0.09090909
    0.09090909      -0.13636364       0.04545455
   -0.09090909       0.13636364      -0.04545455
   -0.04545455      -0.00000000       0.13636364
    0.04545455       0.00000000      -0.13636364
    0.00000000       0.09090909       0.04545455
   -0.00000000      -0.09090909      -0.04545455
   -0.04545455       0.13636364      -0.09090909
    0.04545455      -0.13636364       0.09090909
    0.09090909       0.00000000      -0.13636364
   -0.09090909      -0.00000000       0.13636364
    0.13636364      -0.04545455      -0.00000000
   -0.13636364       0.04545455       0.00000000
   -0.13636364       0.04545455       0.09090909
    0.13636364      -0.04545455      -0.09090909
   -0.09090909       0.00000000      -0.04545455
    0.09090909      -0.00000000       0.04545455
    0.04545455      -0.13636364      -0.00000000
   -0.04545455       0.13636364       0.00000000
    0.00000000      -0.09090909       0.13636364
   -0.00000000       0.09090909      -0.13636364
   -0.13636364      -0.04545455       0.00000000
    0.00000000       0.18181818      -0.04545455
    0.00000000      -0.18181818       0.04545455
    0.04545455       0.13636364      -0.18181818
   -0.04545455      -0.13636364       0.18181818
    0.18181818       0.00000000      -0.13636364
   -0.18181818       0.00000000       0.13636364
   -0.18181818      -0.00000000       0.04545455
    0.18181818       0.00000000      -0.04545455
   -0.04545455      -0.13636364       0.00000000
    0.04545455       0.13636364      -0.00000000
   -0.00000000      -0.18181818       0.13636364
    0.00000000       0.18181818      -0.13636364
   -0.13636364      -0.04545455       0.18181818
    0.13636364       0.04545455      -0.18181818
    0.04545455      -0.00000000       0.13636364
   -0.04545455       0.00000000      -0.13636364
   -0.13636364       0.18181818       0.00000000
    0.13636364      -0.18181818      -0.00000000
   -0.00000000       0.04545455      -0.18181818
    0.00000000      -0.04545455       0.18181818
    0.18181818      -0.13636364      -0.04545455
   -0.18181818       0.13636364       0.04545455
   -0.18181818       0.13636364       0.00000000
    0.18181818      -0.13636364      -0.00000000
   -0.00000000      -0.04545455      -0.13636364
    0.00000000       0.04545455       0.13636364
    0.13636364      -0.18181818       0.04545455
   -0.13636364       0.18181818      -0.04545455
   -0.04545455      -0.00000000       0.18181818
    0.04545455       0.00000000      -0.18181818
   -0.00000000       0.13636364       0.04545455
    0.00000000      -0.13636364      -0.04545455
   -0.04545455       0.18181818      -0.13636364
    0.04545455      -0.18181818       0.13636364
    0.13636364      -0.00000000      -0.18181818
   -0.13636364       0.00000000       0.18181818
    0.18181818      -0.04545455       0.00000000
   -0.18181818       0.04545455      -0.00000000
   -0.18181818       0.04545455       0.13636364
    0.18181818      -0.04545455      -0.13636364
   -0.13636364       0.00000000      -0.04545455
    0.13636364      -0.00000000       0.04545455
    0.04545455      -0.18181818      -0.00000000
   -0.04545455       0.18181818       0.00000000
    0.00000000      -0.13636364       0.18181818
   -0.00000000       0.13636364      -0.18181818
   -0.18181818      -0.04545455       0.00000000
    0.00000000       0.22727273      -0.04545455
    0.00000000      -0.22727273       0.04545455
    0.04545455       0.18181818      -0.22727273
   -0.04545455      -0.18181818       0.22727273
    0.22727273       0.00000000      -0.18181818
   -0.22727273       0.00000000       0.18181818
   -0.22727273      -0.00000000       0.04545455
    0.22727273       0.00000000      -0.04545455
   -0.04545455      -0.18181818       0.00000000
    0.04545455       0.18181818      -0.00000000
   -0.00000000      -0.22727273       0.18181818
    0.00000000       0.22727273      -0.18181818
   -0.18181818      -0.04545455       0.22727273
    0.18181818       0.04545455      -0.22727273
    0.04545455      -0.00000000       0.18181818
   -0.04545455       0.00000000      -0.18181818
   -0.18181818       0.22727273       0.00000000
    0.18181818      -0.22727273      -0.00000000
   -0.00000000       0.04545455      -0.22727273
    0.00000000      -0.04545455       0.22727273
    0.22727273      -0.18181818      -0.04545455
   -0.22727273       0.18181818       0.04545455
   -0.22727273       0.18181818       0.00000000
    0.22727273      -0.18181818      -0.00000000
   -0.00000000      -0.04545455      -0.18181818
    0.00000000       0.04545455       0.18181818
    0.18181818      -0.22727273       0.04545455
   -0.18181818       0.22727273      -0.04545455
   -0.04545455      -0.00000000       0.22727273
    0.04545455       0.00000000      -0.22727273
    0.00000000       0.18181818       0.04545455
   -0.00000000      -0.18181818      -0.04545455
   -0.04545455       0.22727273      -0.18181818
    0.04545455      -0.22727273       0.18181818
    0.18181818       0.00000000      -0.22727273
   -0.18181818      -0.00000000       0.22727273
    0.22727273      -0.04545455      -0.00000000
   -0.22727273       0.04545455       0.00000000
   -0.22727273       0.04545455       0.18181818
    0.22727273      -0.04545455      -0.18181818
   -0.18181818       0.00000000      -0.04545455
    0.18181818      -0.00000000       0.04545455