begin Projections
random
end Projections
write_hr = true
begin atoms_cart
Ang
ni_1          2.097130       2.097130       2.097130
o_2           0.000000       0.000000       0.000000
end atoms_cart
num_wann =   13
fermi_energy = 0.0
begin unit_cell_cart
Ang
    0.00000000       2.09712999       2.09712999
    2.09712999       0.00000000       2.09712999
    2.09712999       2.09712999       0.00000000
end unit_cell_cart
mp_grid =    6    6    6
begin kpoints
    0.00000000       0.00000000       0.00000000
    0.00000000       0.00000000      -0.16666667
    0.00000000       0.00000000      -0.33333333
    0.00000000       0.00000000      -0.50000000
    0.00000000       0.16666667       0.16666667
    0.00000000       0.16666667       0.33333333
   -0.33333333       0.16666667       0.16666667
   -0.33333333      -0.33333333      -0.50000000
    0.16666667       0.16666667       0.33333333
    0.00000000       0.33333333       0.33333333
   -0.16666667       0.33333333       0.33333333
    0.33333333       0.33333333       0.66666667
    0.00000000       0.50000000       0.50000000
   -0.16666667       0.16666667       0.33333333
   -0.16666667      -0.33333333      -0.66666667
    0.16666667      -0.33333333      -0.50000000
   -0.00000000      -0.00000000       0.16666667
    0.00000000       0.16666667       0.00000000
   -0.00000000      -0.16666667      -0.00000000
    0.16666667       0.16666667       0.16666667
   -0.16666667      -0.16666667      -0.16666667
    0.16666667       0.00000000       0.00000000
   -0.16666667      -0.00000000      -0.00000000
   -0.00000000      -0.00000000       0.33333333
    0.00000000       0.33333333       0.00000000
   -0.00000000      -0.33333333      -0.00000000
    0.33333333       0.33333333       0.33333333
   -0.33333333      -0.33333333      -0.33333333
    0.33333333       0.00000000       0.00000000
   -0.33333333      -0.00000000      -0.00000000
    0.00000000       0.50000000       0.00000000
    0.50000000       0.50000000       0.50000000
    0.50000000       0.00000000       0.00000000
   -0.00000000      -0.16666667      -0.16666667
    0.16666667       0.00000000       0.16666667
   -0.16666667      -0.00000000      -0.16666667
    0.16666667       0.16666667       0.00000000
   -0.16666667      -0.16666667      -0.00000000
   -0.00000000      -0.16666667      -0.33333333
    0.16666667      -0.16666667       0.16666667
   -0.16666667       0.16666667      -0.16666667
   -0.16666667      -0.33333333      -0.33333333
    0.16666667       0.33333333       0.33333333
   -0.33333333      -0.00000000      -0.16666667
    0.33333333       0.00000000       0.16666667
    0.00000000       0.33333333       0.16666667
   -0.00000000      -0.33333333      -0.16666667
   -0.16666667       0.00000000      -0.33333333
    0.16666667      -0.00000000       0.33333333
    0.16666667      -0.16666667      -0.16666667
   -0.16666667       0.16666667       0.16666667
    0.33333333       0.16666667       0.33333333
   -0.33333333      -0.16666667      -0.33333333
    0.16666667       0.16666667      -0.16666667
   -0.16666667      -0.16666667       0.16666667
   -0.16666667      -0.33333333       0.00000000
    0.16666667       0.33333333      -0.00000000
   -0.33333333      -0.16666667      -0.00000000
    0.33333333       0.16666667       0.00000000
    0.33333333       0.33333333       0.16666667
   -0.33333333      -0.33333333      -0.16666667
    0.33333333      -0.16666667      -0.16666667
    0.16666667       0.00000000       0.50000000
   -0.16666667      -0.00000000      -0.50000000
    0.00000000      -0.50000000      -0.16666667
   -0.00000000       0.50000000       0.16666667
   -0.50000000      -0.33333333      -0.50000000
    0.50000000       0.33333333       0.50000000
    0.33333333       0.50000000       0.50000000
   -0.33333333      -0.50000000      -0.50000000
   -0.16666667       0.33333333      -0.16666667
    0.16666667      -0.33333333       0.16666667
   -0.00000000      -0.16666667      -0.50000000
    0.00000000       0.16666667       0.50000000
    0.50000000      -0.00000000       0.16666667
   -0.50000000       0.00000000      -0.16666667
    0.50000000       0.16666667       0.00000000
   -0.50000000      -0.16666667      -0.00000000
   -0.50000000      -0.50000000      -0.33333333
    0.50000000       0.50000000       0.33333333
   -0.16666667      -0.16666667       0.33333333
    0.16666667       0.16666667      -0.33333333
    0.16666667       0.50000000      -0.00000000
   -0.16666667      -0.50000000       0.00000000
    0.33333333       0.33333333       0.50000000
   -0.33333333       0.16666667       0.00000000
    0.33333333      -0.16666667      -0.00000000
    0.16666667       0.16666667       0.50000000
   -0.16666667      -0.16666667      -0.50000000
    0.16666667      -0.33333333       0.00000000
   -0.16666667       0.33333333      -0.00000000
   -0.50000000      -0.33333333      -0.33333333
    0.50000000       0.33333333       0.33333333
   -0.00000000      -0.33333333       0.16666667
    0.00000000       0.33333333      -0.16666667
    0.50000000       0.16666667       0.16666667
   -0.50000000      -0.16666667      -0.16666667
   -0.00000000       0.16666667      -0.33333333
    0.00000000      -0.16666667       0.33333333
   -0.33333333      -0.50000000      -0.33333333
    0.33333333       0.50000000       0.33333333
    0.16666667      -0.00000000      -0.33333333
   -0.16666667       0.00000000       0.33333333
    0.16666667       0.50000000       0.16666667
   -0.16666667      -0.50000000      -0.16666667
   -0.33333333       0.00000000       0.16666667
    0.33333333       0.00000000      -0.16666667
   -0.16666667      -0.16666667      -0.33333333
    0.16666667      -0.16666667      -0.00000000
   -0.16666667       0.16666667       0.00000000
    0.33333333       0.16666667       0.16666667
   -0.33333333      -0.16666667      -0.16666667
    0.00000000       0.16666667      -0.16666667
   -0.00000000      -0.16666667       0.16666667
    0.16666667       0.33333333       0.16666667
   -0.16666667      -0.33333333      -0.16666667
   -0.16666667       0.00000000       0.16666667
    0.16666667      -0.00000000      -0.16666667
   -0.00000000      -0.33333333      -0.33333333
    0.33333333       0.00000000       0.33333333
   -0.33333333      -0.00000000      -0.33333333
    0.33333333       0.33333333       0.00000000
   -0.33333333      -0.33333333      -0.00000000
    0.16666667      -0.33333333      -0.33333333
    0.33333333       0.00000000       0.50000000
   -0.33333333      -0.00000000      -0.50000000
    0.00000000      -0.50000000      -0.33333333
   -0.00000000       0.50000000       0.33333333
   -0.50000000      -0.16666667      -0.50000000
    0.50000000       0.16666667       0.50000000
    0.16666667       0.50000000       0.50000000
   -0.16666667      -0.50000000      -0.50000000
   -0.33333333       0.16666667      -0.33333333
    0.33333333      -0.16666667       0.33333333
   -0.00000000      -0.33333333      -0.50000000
    0.00000000       0.33333333       0.50000000
    0.50000000      -0.00000000       0.33333333
   -0.50000000       0.00000000      -0.33333333
    0.50000000       0.33333333       0.00000000
   -0.50000000      -0.33333333      -0.00000000
   -0.50000000      -0.50000000      -0.16666667
    0.50000000       0.50000000       0.16666667
   -0.33333333      -0.33333333       0.16666667
    0.33333333       0.33333333      -0.16666667
    0.33333333       0.50000000      -0.00000000
   -0.33333333      -0.50000000       0.00000000
   -0.33333333      -0.33333333      -0.66666667
    0.33333333      -0.33333333      -0.00000000
   -0.33333333       0.33333333       0.00000000
    0.66666667       0.33333333       0.33333333
   -0.66666667      -0.33333333      -0.33333333
    0.00000000       0.33333333      -0.33333333
   -0.00000000      -0.33333333       0.33333333
    0.33333333       0.66666667       0.33333333
   -0.33333333      -0.66666667      -0.33333333
   -0.33333333       0.00000000       0.33333333
    0.33333333      -0.00000000      -0.33333333
    0.50000000       0.00000000       0.50000000
    0.50000000       0.50000000       0.00000000
    0.16666667      -0.16666667      -0.33333333
    0.16666667      -0.16666667       0.33333333
   -0.16666667       0.16666667      -0.33333333
   -0.16666667      -0.50000000      -0.33333333
    0.16666667       0.50000000       0.33333333
   -0.50000000      -0.16666667      -0.33333333
    0.50000000       0.16666667       0.33333333
    0.33333333      -0.16666667       0.16666667
   -0.33333333       0.16666667      -0.16666667
    0.33333333       0.16666667      -0.16666667
   -0.33333333      -0.16666667       0.16666667
   -0.33333333      -0.16666667      -0.50000000
    0.33333333       0.16666667       0.50000000
   -0.33333333      -0.50000000      -0.16666667
    0.33333333       0.50000000       0.16666667
    0.16666667       0.33333333      -0.16666667
   -0.16666667      -0.33333333       0.16666667
   -0.16666667       0.33333333       0.16666667
    0.16666667      -0.33333333      -0.16666667
   -0.50000000      -0.33333333      -0.16666667
    0.50000000       0.33333333       0.16666667
   -0.16666667      -0.33333333      -0.50000000
    0.16666667       0.33333333       0.50000000
    0.16666667       0.33333333       0.66666667
   -0.33333333       0.33333333      -0.16666667
    0.33333333      -0.33333333       0.16666667
    0.33333333       0.50000000       0.66666667
   -0.33333333      -0.50000000      -0.66666667
    0.50000000      -0.16666667       0.16666667
   -0.50000000       0.16666667      -0.16666667
    0.16666667      -0.50000000      -0.16666667
   -0.16666667       0.50000000       0.16666667
    0.33333333       0.16666667       0.66666667
   -0.33333333      -0.16666667      -0.66666667
   -0.33333333       0.33333333       0.16666667
    0.33333333      -0.33333333      -0.16666667
   -0.50000000      -0.33333333      -0.66666667
    0.50000000       0.33333333       0.66666667
   -0.66666667      -0.16666667      -0.33333333
    0.66666667       0.16666667       0.33333333
    0.66666667       0.33333333       0.50000000
   -0.66666667      -0.33333333      -0.50000000
   -0.16666667       0.16666667      -0.50000000
    0.16666667      -0.16666667       0.50000000
    0.16666667      -0.33333333       0.33333333
   -0.16666667       0.33333333      -0.33333333
   -0.16666667       0.33333333       0.50000000
   -0.33333333       0.16666667      -0.50000000
    0.33333333      -0.16666667       0.50000000
   -0.50000000       0.16666667      -0.33333333
    0.50000000      -0.16666667       0.33333333
   -0.50000000      -0.33333333       0.16666667
    0.50000000       0.33333333      -0.16666667
   -0.33333333      -0.50000000       0.16666667
    0.33333333       0.50000000      -0.16666667
    0.16666667      -0.50000000      -0.33333333
   -0.16666667       0.50000000       0.33333333
end kpoints
num_bands =   28
exclude_bands = 1,    30-  200
num_iter =     0
dis_num_iter =   100
dis_win_max =    50.000000
dis_win_min =   -15.000000
dis_froz_max =     8.505607
dis_froz_min =   -15.000000
